sat
(:added-eqs                   1336652
 :arith-eq-adapter            3386
 :arith-assume-eqs            4
 :arith-bound-propagations-lp 50515
 :arith-conflicts             185
 :arith-diseq                 68730
 :arith-fixed-eqs             34682
 :arith-lower                 69803
 :arith-make-feasible         32553
 :arith-max-columns           1869
 :arith-max-rows              891
 :arith-offset-eqs            18165
 :arith-upper                 91788
 :binary-propagations         5001612
 :conflicts                   14095
 :decisions                   1270663
 :del-clause                  10701
 :elim-unconstrained          2
 :final-checks                3
 :interface-eqs               2
 :max-memory                  51.89
 :memory                      33.82
 :minimized-lits              45992
 :mk-bool-var                 21814
 :mk-clause                   21235
 :mk-clause-binary            17642
 :num-allocs                  310276583
 :num-checks                  1
 :propagations                6364320
 :restarts                    91
 :rlimit-count                28206145
 :time                        65.40
 :total-time                  66.98)
